774
8960
5219
8873
8563
7349
5101
6523
1353
4126
2698
3710
4327
8323
2153
1443
4387
4840
2999
6743
616
6530
10142
9305
7192
4908
9095
9330
2072
5192
9539
7182
8306
6332
6883
2915
1553
2204
2874
7111
5091
466
3191
4802
9114
9243
3090
6083
3306
6685
4903
